certificates/rado_a12_c284_N30.cnf
c Rad2 upper bound instance: x1 + 12*x2 - x3 = 284, interval [1,30]
p cnf 30 148
1 5 24 0
-1 -5 -24 0
1 17 25 0
-1 -17 -25 0
1 26 29 0
-1 -26 -29 0
2 6 24 0
-2 -6 -24 0
2 18 25 0
-2 -18 -25 0
2 26 30 0
-2 -26 -30 0
3 7 24 0
-3 -7 -24 0
3 19 25 0
-3 -19 -25 0
4 8 24 0
-4 -8 -24 0
4 20 25 0
-4 -20 -25 0
5 9 24 0
-5 -9 -24 0
5 21 25 0
-5 -21 -25 0
6 10 24 0
-6 -10 -24 0
6 22 25 0
-6 -22 -25 0
7 11 24 0
-7 -11 -24 0
7 23 25 0
-7 -23 -25 0
8 12 24 0
-8 -12 -24 0
8 24 25 0
-8 -24 -25 0
1 9 23 0
-1 -9 -23 0
9 13 24 0
-9 -13 -24 0
9 25 0
-9 -25 0
2 10 23 0
-2 -10 -23 0
10 14 24 0
-10 -14 -24 0
10 25 26 0
-10 -25 -26 0
3 11 23 0
-3 -11 -23 0
11 15 24 0
-11 -15 -24 0
11 25 27 0
-11 -25 -27 0
4 12 23 0
-4 -12 -23 0
12 16 24 0
-12 -16 -24 0
12 25 28 0
-12 -25 -28 0
5 13 23 0
-5 -13 -23 0
13 17 24 0
-13 -17 -24 0
13 25 29 0
-13 -25 -29 0
6 14 23 0
-6 -14 -23 0
14 18 24 0
-14 -18 -24 0
14 25 30 0
-14 -25 -30 0
7 15 23 0
-7 -15 -23 0
15 19 24 0
-15 -19 -24 0
8 16 23 0
-8 -16 -23 0
16 20 24 0
-16 -20 -24 0
9 17 23 0
-9 -17 -23 0
17 21 24 0
-17 -21 -24 0
10 18 23 0
-10 -18 -23 0
18 22 24 0
-18 -22 -24 0
11 19 23 0
-11 -19 -23 0
19 23 24 0
-19 -23 -24 0
12 20 23 0
-12 -20 -23 0
20 24 0
-20 -24 0
1 21 22 0
-1 -21 -22 0
13 21 23 0
-13 -21 -23 0
21 24 25 0
-21 -24 -25 0
2 22 0
-2 -22 0
14 22 23 0
-14 -22 -23 0
22 24 26 0
-22 -24 -26 0
3 22 23 0
-3 -22 -23 0
15 23 0
-15 -23 0
23 24 27 0
-23 -24 -27 0
4 22 24 0
-4 -22 -24 0
16 23 24 0
-16 -23 -24 0
24 28 0
-24 -28 0
5 22 25 0
-5 -22 -25 0
17 23 25 0
-17 -23 -25 0
24 25 29 0
-24 -25 -29 0
6 22 26 0
-6 -22 -26 0
18 23 26 0
-18 -23 -26 0
24 26 30 0
-24 -26 -30 0
7 22 27 0
-7 -22 -27 0
19 23 27 0
-19 -23 -27 0
8 22 28 0
-8 -22 -28 0
20 23 28 0
-20 -23 -28 0
9 22 29 0
-9 -22 -29 0
21 23 29 0
-21 -23 -29 0
10 22 30 0
-10 -22 -30 0
22 23 30 0
-22 -23 -30 0
