certificates/rado_a12_c284_N30.drat
-26 23 -29 -30 0
-28 -29 -30 0
-29 -30 0
d -28 -29 -30 0
28 -30 0
-30 0
-28 29 0
-22 -24 0
28 0
-24 0
29 0
20 0
26 0
-23 0
-1 0
19 0
15 0
27 0
16 0
22 0
5 0
9 0
-2 0
0
